wcsp 3 2 3 10
2 2 2
1 0 0 2
0 0.5
1 0.5
1 1 1 2
0 0.5
1 0.5
1 2 2 2
0 0.20000000298023224
1 0.7999999970197678
3 0 1 2 2 8
0 0 0 2.7080502607068566
0 0 1 1.832581448847149
0 1 0 2.7080502607068566
0 1 1 1.832581448847149
1 0 0 1.832581448847149
1 0 1 1.832581448847149
1 1 0 2.7080502607068566
1 1 1 1.832581448847149
3 1 2 0 0 8
0 0 0 1.832581448847149
0 0 1 1.832581448847149
0 1 0 2.7080502607068566
0 1 1 2.7080502607068566
1 0 0 1.832581448847149
1 0 1 1.832581448847149
1 1 0 2.7080502607068566
1 1 1 1.832581448847149
3 1 2 0 0 1
1 0 1 10